334 5
10 10 10 10 10 

0 0 0 0 0 0 4 2 14 26 38 
0 0 0 0 0 0 6 3 4 5 10 11 12 
4 0 0 4 0 0 3 9 8 7 
10 0 0 5 0 0 4 9 8 7 248 
5 0 0 10 0 0 2 8 6 
6 0 0 6 0 0 1 7 
5 0 0 6 0 0 1 13 
3 0 0 9 0 0 1 13 
3 0 0 7 0 0 1 13 
8 0 0 8 0 0 1 13 
1 0 0 10 0 0 1 13 
6 0 0 10 0 0 1 13 
0 0 0 0 0 0 1 50 
0 0 0 0 0 0 5 15 17 18 23 24 
10 0 1 0 0 0 3 22 21 16 
5 0 5 0 0 0 2 20 19 
2 0 8 0 0 0 2 19 320 
3 0 5 0 0 0 1 19 
8 0 10 0 0 0 1 25 
3 0 10 0 0 0 1 25 
6 0 9 0 0 0 1 25 
3 0 10 0 0 0 1 25 
5 0 7 0 0 0 1 25 
3 0 10 0 0 0 1 25 
0 0 0 0 0 0 1 50 
0 0 0 0 0 0 5 27 28 29 31 36 
3 4 0 0 0 0 3 33 32 30 
6 5 0 0 0 0 3 34 33 32 
3 10 0 0 0 0 2 33 32 
6 6 0 0 0 0 1 35 
6 10 0 0 0 0 1 34 
1 8 0 0 0 0 2 37 237 
4 7 0 0 0 0 1 37 
3 6 0 0 0 0 1 37 
7 10 0 0 0 0 1 37 
2 9 0 0 0 0 1 37 
0 0 0 0 0 0 1 50 
0 0 0 0 0 0 5 39 40 42 43 48 
5 0 0 0 0 3 3 47 46 41 
6 0 0 0 0 10 3 47 45 44 
5 0 0 0 0 9 1 44 
2 0 0 0 0 8 2 46 235 
2 0 0 0 0 7 1 45 
8 0 0 0 0 7 1 49 
8 0 0 0 0 8 1 49 
2 0 0 0 0 7 1 49 
8 0 0 0 0 10 1 49 
8 0 0 0 0 6 1 49 
0 0 0 0 0 0 1 50 
0 0 0 0 0 0 4 51 63 75 87 
0 0 0 0 0 0 5 52 53 54 55 57 
9 1 0 0 0 0 3 61 58 56 
9 8 0 0 0 0 3 61 58 56 
10 10 0 0 0 0 3 61 60 58 
1 7 0 0 0 0 1 56 
5 7 0 0 0 0 3 60 59 89 
8 9 0 0 0 0 2 60 59 
3 9 0 0 0 0 1 59 
4 10 0 0 0 0 1 62 
7 7 0 0 0 0 1 62 
7 7 0 0 0 0 1 62 
0 0 0 0 0 0 1 99 
0 0 0 0 0 0 7 64 66 67 70 71 72 73 
6 0 6 0 0 0 1 65 
4 0 8 0 0 0 2 69 80 
9 0 3 0 0 0 1 68 
3 0 10 0 0 0 1 68 
2 0 9 0 0 0 1 74 
5 0 10 0 0 0 1 74 
7 0 5 0 0 0 1 74 
7 0 8 0 0 0 1 74 
5 0 9 0 0 0 1 74 
8 0 7 0 0 0 1 74 
0 0 0 0 0 0 1 99 
0 0 0 0 0 0 5 76 77 79 81 85 
6 0 0 0 4 0 3 84 80 78 
5 0 0 0 6 0 3 80 78 317 
8 0 0 0 6 0 2 83 82 
9 0 0 0 10 0 1 80 
8 0 0 0 7 0 1 82 
5 0 0 0 6 0 1 83 
1 0 0 0 10 0 1 86 
1 0 0 0 8 0 1 86 
10 0 0 0 10 0 1 86 
10 0 0 0 8 0 1 86 
0 0 0 0 0 0 1 99 
0 0 0 0 0 0 5 88 89 90 91 97 
4 1 0 0 0 0 2 95 93 
1 8 0 0 0 0 2 95 92 
3 6 0 0 0 0 2 96 95 
1 6 0 0 0 0 1 92 
7 10 0 0 0 0 1 94 
4 10 0 0 0 0 2 94 143 
6 10 0 0 0 0 1 98 
4 8 0 0 0 0 1 98 
10 10 0 0 0 0 1 98 
10 6 0 0 0 0 1 98 
0 0 0 0 0 0 1 99 
0 0 0 0 0 0 4 100 132 164 196 
0 0 0 0 0 0 6 101 102 103 104 106 130 
5 0 5 5 0 3 4 114 108 107 105 
3 0 10 9 0 10 5 129 120 112 110 108 
2 0 10 8 0 8 5 120 119 114 112 109 
1 0 10 3 0 6 5 127 123 119 112 109 
7 0 7 10 0 7 4 123 120 119 109 
1 0 7 9 0 8 5 128 124 115 114 111 
2 0 9 10 0 7 3 124 111 110 
7 0 5 9 0 10 5 124 123 119 118 115 
1 0 4 10 0 10 2 124 110 
5 0 6 7 0 10 3 126 118 115 
1 0 8 10 0 10 3 123 118 116 
8 0 7 10 0 9 2 125 113 
7 0 7 8 0 10 1 115 
5 0 3 8 0 6 2 123 117 
3 0 8 10 0 5 1 116 
9 0 5 8 0 6 1 117 
2 0 9 8 0 10 1 121 
2 0 9 8 0 10 1 122 
4 0 7 6 0 7 1 125 
7 0 8 4 0 8 2 125 210 
9 0 10 5 0 5 1 131 
2 0 8 9 0 9 1 131 
2 0 10 10 0 9 1 131 
1 0 6 3 0 10 1 131 
1 0 5 10 0 10 1 131 
8 0 10 6 0 6 1 131 
10 0 8 5 0 2 1 131 
7 0 9 10 0 4 1 131 
7 0 5 2 0 7 1 131 
1 0 10 5 0 3 1 131 
0 0 0 0 0 0 1 334 
0 0 0 0 0 0 9 133 136 139 140 142 159 160 161 162 
2 0 4 8 10 0 5 154 147 146 135 134 
3 0 10 7 4 0 3 153 152 137 
10 0 10 5 6 0 4 157 155 151 138 
9 0 8 7 7 0 3 158 156 138 
5 0 6 4 5 0 2 151 138 
9 0 10 6 7 0 3 149 145 141 
8 0 10 6 9 0 5 156 154 151 149 144 
8 0 4 9 9 0 3 152 151 146 
8 0 8 9 10 0 1 143 
9 0 6 10 5 0 2 155 154 
5 0 3 7 10 0 1 144 
3 0 5 10 6 0 1 148 
5 0 10 6 7 0 1 150 
4 0 7 9 10 0 1 153 
1 0 9 6 7 0 1 152 
7 0 5 10 5 0 1 163 
4 0 8 8 5 0 1 163 
2 0 7 8 7 0 1 163 
1 0 9 10 9 0 1 163 
2 0 10 5 9 0 1 163 
3 0 10 7 9 0 1 163 
3 0 9 10 6 0 1 163 
4 0 5 5 10 0 1 163 
1 0 6 8 3 0 1 163 
7 0 8 10 7 0 1 163 
1 0 8 9 7 0 1 163 
10 0 3 6 10 0 1 163 
10 0 10 6 8 0 1 163 
9 0 7 4 10 0 1 163 
7 0 10 10 8 0 1 163 
0 0 0 0 0 0 1 334 
0 0 0 0 0 0 6 165 166 167 168 169 180 
7 5 4 0 2 0 5 184 181 172 171 170 
5 6 6 0 3 0 5 181 178 176 171 170 
8 5 10 0 9 0 3 176 171 170 
7 5 8 0 7 0 3 182 172 170 
4 10 5 0 7 0 4 184 182 177 172 
9 8 7 0 4 0 3 177 174 173 
10 5 5 0 10 0 2 182 175 
6 9 9 0 10 0 2 178 176 
1 5 8 0 8 0 2 185 179 
7 6 5 0 10 0 2 185 179 
2 10 10 0 4 0 2 185 179 
3 10 10 0 5 0 1 179 
4 5 5 0 5 0 1 179 
7 8 10 0 9 0 1 179 
4 8 10 0 6 0 5 194 193 190 186 183 
6 8 9 0 8 0 5 194 193 190 186 183 
8 10 5 0 8 0 3 193 188 186 
6 9 10 0 10 0 2 193 183 
6 8 7 0 8 0 2 191 187 
4 7 10 0 6 0 1 185 
8 10 7 0 9 0 3 194 193 191 
3 3 10 0 9 0 2 191 189 
2 7 8 0 10 0 1 188 
9 10 3 0 7 0 1 192 
1 10 5 0 8 0 1 192 
10 6 6 0 7 0 1 191 
1 9 8 0 10 0 1 195 
9 6 10 0 10 0 1 195 
6 8 9 0 8 0 1 195 
3 9 6 0 8 0 1 195 
0 0 0 0 0 0 1 334 
0 0 0 0 0 0 3 197 198 202 
2 0 3 0 0 0 3 205 200 199 
3 0 9 0 0 0 2 201 199 
7 0 9 0 0 0 3 206 204 203 
3 0 8 0 0 0 2 204 203 
1 0 9 0 0 0 1 205 
7 0 5 0 0 0 1 203 
7 0 6 0 0 0 1 207 
2 0 10 0 0 0 1 207 
9 0 10 0 0 0 1 207 
8 0 6 0 0 0 1 207 
0 0 0 0 0 0 4 208 230 242 264 
0 0 0 0 0 0 4 209 210 211 212 
4 5 0 3 0 0 5 221 219 217 216 215 
4 4 0 8 0 0 4 219 215 214 213 
6 7 0 7 0 0 3 219 215 213 
4 7 0 9 0 0 3 217 214 213 
1 8 0 6 0 0 3 222 221 218 
8 10 0 7 0 0 3 222 220 218 
1 7 0 10 0 0 2 220 218 
8 10 0 7 0 0 2 220 218 
5 9 0 9 0 0 4 227 224 223 222 
10 10 0 6 0 0 4 228 227 226 224 
9 5 0 6 0 0 4 227 226 224 223 
1 7 0 5 0 0 3 228 226 223 
10 8 0 7 0 0 3 227 224 223 
4 5 0 9 0 0 2 228 226 
4 5 0 10 0 0 1 225 
6 10 0 6 0 0 1 225 
3 10 0 10 0 0 1 229 
8 10 0 7 0 0 1 229 
6 7 0 10 0 0 1 229 
10 6 0 8 0 0 1 229 
0 0 0 0 0 0 1 334 
0 0 0 0 0 0 7 231 233 236 237 238 239 240 
8 0 0 0 0 1 2 234 232 
9 0 0 0 0 8 1 235 
1 0 0 0 0 10 1 234 
8 0 0 0 0 10 1 241 
9 0 0 0 0 7 1 241 
5 0 0 0 0 5 1 241 
8 0 0 0 0 9 1 241 
3 0 0 0 0 9 1 241 
6 0 0 0 0 6 1 241 
9 0 0 0 0 10 1 241 
0 0 0 0 0 0 4 286 298 310 322 
0 0 0 0 0 0 9 243 244 245 246 247 248 249 252 254 
6 0 0 4 3 0 5 262 261 256 253 250 
3 0 0 10 10 0 4 262 261 260 251 
4 0 0 10 8 0 4 261 256 253 250 
2 0 0 3 7 0 4 262 261 256 253 
5 0 0 7 10 0 4 261 259 256 253 
3 0 0 4 6 0 3 256 253 250 
3 0 0 10 9 0 6 262 261 259 258 257 256 
8 0 0 10 9 0 3 260 259 255 
9 0 0 10 6 0 2 259 253 
9 0 0 6 4 0 2 259 255 
1 0 0 4 7 0 1 255 
7 0 0 10 10 0 1 255 
4 0 0 8 8 0 2 258 257 
9 0 0 7 6 0 1 260 
4 0 0 7 9 0 1 263 
7 0 0 7 6 0 1 263 
3 0 0 5 7 0 1 263 
1 0 0 9 5 0 1 263 
1 0 0 10 10 0 1 263 
2 0 0 9 10 0 1 263 
0 0 0 0 0 0 1 334 
0 0 0 0 0 0 6 265 266 268 269 270 284 
6 0 0 2 9 0 5 283 282 280 272 267 
5 0 0 8 5 0 6 281 280 278 275 274 272 
9 0 0 10 10 0 4 281 278 274 271 
4 0 0 10 4 0 4 280 278 274 271 
1 0 0 8 10 0 5 281 280 278 277 272 
4 0 0 5 8 0 4 281 280 278 272 
6 0 0 3 8 0 3 279 277 273 
2 0 0 7 8 0 1 273 
7 0 0 7 8 0 1 276 
9 0 0 6 10 0 1 277 
4 0 0 7 8 0 1 279 
4 0 0 10 7 0 1 285 
6 0 0 7 9 0 1 285 
10 0 0 8 9 0 1 285 
5 0 0 10 6 0 1 285 
1 0 0 7 4 0 1 285 
3 0 0 8 6 0 1 285 
2 0 0 10 10 0 1 285 
1 0 0 10 3 0 1 285 
1 0 0 7 8 0 1 285 
0 0 0 0 0 0 1 334 
0 0 0 0 0 0 4 287 288 289 291 
6 0 5 0 0 0 4 296 295 292 290 
1 0 9 0 0 0 3 296 295 290 
5 0 5 0 0 0 3 296 292 290 
8 0 7 0 0 0 2 294 293 
7 0 6 0 0 0 2 295 294 
7 0 5 0 0 0 1 293 
6 0 10 0 0 0 1 297 
5 0 10 0 0 0 1 297 
7 0 10 0 0 0 1 297 
3 0 8 0 0 0 1 297 
0 0 0 0 0 0 1 334 
0 0 0 0 0 0 5 299 300 301 302 303 
1 0 0 0 0 1 3 308 305 304 
6 0 0 0 0 9 3 308 305 304 
7 0 0 0 0 9 3 308 307 305 
9 0 0 0 0 9 2 306 304 
8 0 0 0 0 8 2 307 306 
2 0 0 0 0 5 1 307 
3 0 0 0 0 9 1 306 
9 0 0 0 0 7 1 309 
10 0 0 0 0 9 1 309 
8 0 0 0 0 9 1 309 
0 0 0 0 0 0 1 334 
0 0 0 0 0 0 5 311 312 313 319 320 
9 0 0 0 1 0 3 318 317 314 
5 0 0 0 10 0 2 317 316 
7 0 0 0 5 0 2 316 315 
7 0 0 0 9 0 1 315 
4 0 0 0 7 0 1 321 
1 0 0 0 10 0 1 321 
7 0 0 0 10 0 1 321 
10 0 0 0 8 0 1 321 
5 0 0 0 5 0 1 321 
9 0 0 0 10 0 1 321 
0 0 0 0 0 0 1 334 
0 0 0 0 0 0 4 323 325 326 332 
7 0 0 0 3 0 2 331 324 
7 0 0 0 8 0 3 330 329 327 
8 0 0 0 5 0 2 328 327 
5 0 0 0 9 0 2 328 327 
6 0 0 0 5 0 1 333 
8 0 0 0 10 0 1 333 
5 0 0 0 10 0 1 333 
9 0 0 0 10 0 1 333 
9 0 0 0 10 0 1 333 
3 0 0 0 5 0 1 333 
0 0 0 0 0 0 1 334 
0 0 0 0 0 0 0 
